22
3 47 46 35 
3 54 53 21 
3 9 42 27 
2 49 43 
3 17 45 18 
3 25 32 30 
3 55 33 50 
3 1 27 11 
2 56 10 
3 2 39 14 
3 13 23 26 
3 20 57 44 
2 31 34 
3 16 12 36 
3 32 58 11 
3 29 19 15 
2 52 25 
2 7 40 
3 48 37 30 
3 4 8 5 
3 6 60 51 
2 22 1 
